120
150
52
44
53
51
56
41
41
60
45
40
54
57
50
43
40
58
54
51
45
40
51
60
45
45
45
48
58
45
47
52
46
52
46
49
55
40
40
40
50
45
55
59
45
46
49
43
58
46
50
54
40
54
57
44
49
40
53
58
45
47
51
41
58
40
58
53
46
51
54
43
55
51
44
40
40
41
50
43
57
53
50
47
43
49
60
43
47
50
45
55
58
59
56
60
51
44
49
55
56
46
55
49
42
51
58
47
45
44
49
60
60
45
56
49
52
49
52
51
58
55
